(set-logic QF_NRA)
(declare-fun buscore2dollarsk!1 () Real)
(declare-fun auscore2dollarsk!0 () Real)
(assert (= (+ auscore2dollarsk!0 (* (- 1) (* buscore2dollarsk!1 buscore2dollarsk!1))) 0))
(assert (not (= (+ auscore2dollarsk!0 (* (- 1) (* buscore2dollarsk!1 buscore2dollarsk!1))) 0)))
(check-sat)
